1110000001111111 
0010000100000001 
0001001000000001 
0011001100100001 
1101000000010101
1010000000001101 
0110001100100000 
0100010000100001 
0101010000100001 
1000100000100001
1000100000010010 
1000100000100010 
1001100110000000 
1101000011111001 
1100101011110000 
0110100100000000 
1111100100000000 
1010000000000110
0000000000000000 
0000000000000000  
0000000000000000
0000000000000000
0000000000000000
0000000000000000
0000000000000000
0000000000000000
0000000000000000
0000000000000000
0000000000000000
0000000000000000
0000000000000000
0000000000000000
0000000000000000
0000000000000000
0000000000000000
0000000000000000
0000000000000000
0000000000000000
0000000000000000
0000000000000000
0000000000000000
0000000000000000
0000000000000000
0000000000000000
0000000000000000
0000000000000000
0000000000000000
0000000000000000
0000000000000000
0000000000000000
0000000000000000
0000000000000000
0000000000000000
0000000000000000
0000000000000000
0000000000000000
0000000000000000
0000000000000000
0000000000000000
0000000000000000
0000000000000000
0000000000000000
0000000000000000
0000000000000000